p cnf 100 342
-3 -2 0
-3 1 0
2 -1 3 0
4 -1 0
4 3 0
1 -3 -4 0
5 -4 0
5 3 0
4 -3 -5 0
-8 -6 0
-8 -7 0
6 7 8 0
11 10 0
11 10 0
-10 -11 0
9 11 -12 0
-9 -11 -12 0
9 -11 12 0
-9 11 12 0
13 -8 0
13 -12 0
8 12 -13 0
14 5 0
14 13 0
-5 -13 -14 0
17 -15 0
17 -16 0
15 16 -17 0
-18 6 0
-18 -17 0
-6 17 18 0
19 18 0
19 -9 0
-18 9 -19 0
20 -19 0
20 13 0
19 -13 -20 0
10 18 -21 0
-10 -18 -21 0
10 -18 21 0
-10 18 21 0
23 -1 0
23 -22 0
1 22 -23 0
-23 18 -24 0
23 -18 -24 0
-23 -18 24 0
23 18 24 0
25 -22 0
25 -24 0
22 24 -25 0
-26 -21 0
-26 25 0
21 -25 26 0
-27 -20 0
-27 26 0
20 -26 27 0
-29 -28 0
-29 -22 0
28 22 29 0
-30 29 0
-30 3 0
-29 -3 30 0
31 -5 0
31 11 0
5 -11 -31 0
-30 31 -32 0
30 -31 -32 0
-30 -31 32 0
30 31 32 0
33 -27 0
33 -32 0
27 32 -33 0
-35 -28 0
-35 -34 0
28 34 35 0
-36 35 0
-36 10 0
-35 -10 36 0
37 33 0
37 36 0
-33 -36 -37 0
-14 -37 -38 0
14 37 -38 0
-14 37 38 0
14 -37 38 0
-22 1 -39 0
22 -1 -39 0
-22 -1 39 0
22 1 39 0
40 -2 0
40 -39 0
2 39 -40 0
8 -28 -41 0
-8 28 -41 0
8 28 41 0
-8 -28 41 0
42 -41 0
42 -6 0
41 6 -42 0
-44 42 0
-44 43 0
-42 -43 44 0
39 -17 -45 0
-39 17 -45 0
39 17 45 0
-39 -17 45 0
45 -7 -46 0
-45 7 -46 0
45 7 46 0
-45 -7 46 0
-47 1 0
-47 -46 0
-1 46 47 0
-48 -44 0
-48 -47 0
44 47 48 0
-40 -48 -49 0
40 48 -49 0
-40 48 49 0
40 -48 49 0
-21 45 -50 0
21 -45 -50 0
-21 -45 50 0
21 45 50 0
51 41 0
51 13 0
-41 -13 -51 0
2 -31 -52 0
-2 31 -52 0
2 31 52 0
-2 -31 52 0
51 52 -53 0
-51 -52 -53 0
51 -52 53 0
-51 52 53 0
54 2 0
54 -22 0
-2 22 -54 0
-55 -4 0
-55 54 0
4 -54 55 0
56 53 0
56 -55 0
-53 55 -56 0
-57 50 0
-57 56 0
-50 -56 57 0
49 -57 -58 0
-49 57 -58 0
49 57 58 0
-49 -57 58 0
-38 -58 -59 0
38 58 -59 0
-38 58 59 0
38 -58 59 0
60 54 0
60 -4 0
-54 4 -60 0
-61 60 0
-61 16 0
-60 -16 61 0
9 1 -62 0
-9 -1 -62 0
9 -1 62 0
-9 1 62 0
3 62 -63 0
-3 -62 -63 0
3 -62 63 0
-3 62 63 0
-64 61 0
-64 -63 0
-61 63 64 0
-65 45 0
-65 -12 0
-45 12 65 0
66 65 0
66 -35 0
-65 35 -66 0
-67 64 0
-67 66 0
-64 -66 67 0
-69 2 0
-69 15 0
-2 -15 69 0
70 -68 0
70 -69 0
68 69 -70 0
-24 7 -71 0
24 -7 -71 0
-24 -7 71 0
24 7 71 0
72 35 0
72 71 0
-35 -71 -72 0
-73 -70 0
-73 72 0
70 -72 73 0
-21 -74 -75 0
21 74 -75 0
-21 74 75 0
21 -74 75 0
-76 6 0
-76 -29 0
-6 29 76 0
-76 23 -77 0
76 -23 -77 0
-76 -23 77 0
76 23 77 0
-78 3 0
-78 34 0
-3 -34 78 0
11 78 -79 0
-11 -78 -79 0
11 -78 79 0
-11 78 79 0
80 -77 0
80 79 0
77 -79 -80 0
81 19 0
81 -15 0
-19 15 -81 0
81 -39 -82 0
-81 39 -82 0
81 39 82 0
-81 -39 82 0
-80 82 -83 0
80 -82 -83 0
-80 -82 83 0
80 82 83 0
-84 24 0
-84 15 0
-24 -15 84 0
83 -84 -85 0
-83 84 -85 0
83 84 85 0
-83 -84 85 0
86 -75 0
86 -85 0
75 85 -86 0
-87 -17 0
-87 -10 0
17 10 87 0
-35 4 -88 0
35 -4 -88 0
-35 -4 88 0
35 4 88 0
-89 -87 0
-89 88 0
87 -88 89 0
90 86 0
90 -89 0
-86 89 -90 0
91 -2 0
91 19 0
2 -19 -91 0
-92 87 0
-92 16 0
-87 -16 92 0
7 -92 -93 0
-7 92 -93 0
7 92 93 0
-7 -92 93 0
94 -19 0
94 -1 0
19 1 -94 0
-95 -93 0
-95 94 0
93 -94 95 0
-96 -91 0
-96 -95 0
91 95 96 0
97 -90 0
97 -96 0
90 96 -97 0
98 -73 0
98 97 0
73 -97 -98 0
-99 -67 0
-99 98 0
67 -98 99 0
-100 59 0
-100 -99 0
-59 99 100 0
-65 89 24 -5 12 0
-74 -98 56 0
54 94 -21 0
26 -46 36 -48 -2 0
18 34 52 68 66 -42 0
4 12 -50 9 -34 -81 0
-43 -24 -54 58 96 0
31 41 54 87 0
55 -1 53 0
-75 25 -46 74 35 0
59 50 41 73 -36 0
-51 64 26 -43 -16 0
-78 64 66 92 49 0
-56 55 -52 -42 -82 0
-32 -86 19 5 15 0
68 -60 48 -84 0
5 -99 10 86 35 54 0
32 -73 -16 -11 0
-64 23 -21 74 -19 -48 0
-9 72 -89 -80 0
-42 -64 0
78 90 79 0
-62 -85 -31 -17 0
-100 -94 -35 42 0
97 64 17 0
-57 -98 0
-46 -44 -8 0
39 -35 91 0
-39 -70 9 93 -27 43 0
79 72 30 -34 47 0
-38 45 -7 82 -18 -57 0
-49 79 -1 -60 98 76 0
26 55 99 -12 0
66 -46 -88 30 48 -58 0
11 82 -25 0
-71 -98 43 35 0
-49 -64 -16 -59 0
-69 -93 21 7 -73 -22 0
-36 58 98 99 0
54 -17 0
-69 -94 -29 -96 -100 0
-55 -30 84 72 0
99 23 84 78 -25 -3 0
-52 61 20 0
-27 36 73 -26 56 0
-50 3 -18 0
36 22 -76 83 44 0
69 48 -60 -44 -77 66 0
-32 35 74 0
53 60 47 0
-36 63 46 84 -87 44 0
-72 -86 40 0
-71 67 -5 1 0
44 -66 -91 0
18 -42 93 0
-52 54 0
85 89 71 36 0
100 0
